&inputpp
 outdir = './'
 prefix = 'graphene'
 seedname = 'graphene'
 spin_component = 'none'
 write_mmn = .true.
 write_amn = .true.
 write_unk = .true.
 /
