num_wann = 2
num_bands= 36

begin projections
C:pz
end projections

!translate_home_cell = .true.

!Disentanglement
dis_win_min  = -10.0
dis_win_max  = 9.5
dis_froz_min = -5.3
dis_froz_max = -0.85
dis_num_iter = 20000
!dis_mix_ratio= 0.5
!dis_conv_tol = 1.0E-10
!dis_conv_window = 5
    
!Wannierise
num_iter = 20000
conv_tol = 1.0E-10
conv_window     = 10
guiding_centres = .true.
    
!Post-Processing
!restart = plot
wannier_plot = .true.
!wannier_plot_format = xcrysden
wannier_plot_format = cube 
wannier_plot_mode   = crystal
wannier_plot_supercell = 5 5 1

bands_plot = .ture.
bands_num_points = 100
bands_plot_format = gnuplot
begin kpoint_path
     G 0.0 0.0 0.0 M 0.0 0.5 0.0
     M 0.0 0.5 0.0 K 0.333333 0.333333 0.0
     K 0.333333 0.333333 0.0 G 0.0 0.0 0.0 
end kpoint_path

! fermi_surface_plot = .true.
! fermi_surface_num_points = 100
! fermi_energy = -5.262

write_hr=.true.
write_rmn=.true.
write_tb=.true.
!end plot

begin unit_cell_cart
Bohr
        4.6623268   0.0000000   0.0000000
       -2.3311634   4.0376934   0.0000000
        0.0000000   0.0000000  37.7945225
end unit_cell_cart

begin atoms_cart
Bohr
        C          -0.0000000   2.6917956  18.8972612
        C           2.3311634   1.3458978  18.8972612
end atoms_cart

mp_grid = 36 36 1
begin kpoints
  0.00000000  0.00000000  0.00000000
  0.00000000  0.02777778  0.00000000
  0.00000000  0.05555556  0.00000000
  0.00000000  0.08333333  0.00000000
  0.00000000  0.11111111  0.00000000
  0.00000000  0.13888889  0.00000000
  0.00000000  0.16666667  0.00000000
  0.00000000  0.19444444  0.00000000
  0.00000000  0.22222222  0.00000000
  0.00000000  0.25000000  0.00000000
  0.00000000  0.27777778  0.00000000
  0.00000000  0.30555556  0.00000000
  0.00000000  0.33333333  0.00000000
  0.00000000  0.36111111  0.00000000
  0.00000000  0.38888889  0.00000000
  0.00000000  0.41666667  0.00000000
  0.00000000  0.44444444  0.00000000
  0.00000000  0.47222222  0.00000000
  0.00000000  0.50000000  0.00000000
  0.00000000  0.52777778  0.00000000
  0.00000000  0.55555556  0.00000000
  0.00000000  0.58333333  0.00000000
  0.00000000  0.61111111  0.00000000
  0.00000000  0.63888889  0.00000000
  0.00000000  0.66666667  0.00000000
  0.00000000  0.69444444  0.00000000
  0.00000000  0.72222222  0.00000000
  0.00000000  0.75000000  0.00000000
  0.00000000  0.77777778  0.00000000
  0.00000000  0.80555556  0.00000000
  0.00000000  0.83333333  0.00000000
  0.00000000  0.86111111  0.00000000
  0.00000000  0.88888889  0.00000000
  0.00000000  0.91666667  0.00000000
  0.00000000  0.94444444  0.00000000
  0.00000000  0.97222222  0.00000000
  0.02777778  0.00000000  0.00000000
  0.02777778  0.02777778  0.00000000
  0.02777778  0.05555556  0.00000000
  0.02777778  0.08333333  0.00000000
  0.02777778  0.11111111  0.00000000
  0.02777778  0.13888889  0.00000000
  0.02777778  0.16666667  0.00000000
  0.02777778  0.19444444  0.00000000
  0.02777778  0.22222222  0.00000000
  0.02777778  0.25000000  0.00000000
  0.02777778  0.27777778  0.00000000
  0.02777778  0.30555556  0.00000000
  0.02777778  0.33333333  0.00000000
  0.02777778  0.36111111  0.00000000
  0.02777778  0.38888889  0.00000000
  0.02777778  0.41666667  0.00000000
  0.02777778  0.44444444  0.00000000
  0.02777778  0.47222222  0.00000000
  0.02777778  0.50000000  0.00000000
  0.02777778  0.52777778  0.00000000
  0.02777778  0.55555556  0.00000000
  0.02777778  0.58333333  0.00000000
  0.02777778  0.61111111  0.00000000
  0.02777778  0.63888889  0.00000000
  0.02777778  0.66666667  0.00000000
  0.02777778  0.69444444  0.00000000
  0.02777778  0.72222222  0.00000000
  0.02777778  0.75000000  0.00000000
  0.02777778  0.77777778  0.00000000
  0.02777778  0.80555556  0.00000000
  0.02777778  0.83333333  0.00000000
  0.02777778  0.86111111  0.00000000
  0.02777778  0.88888889  0.00000000
  0.02777778  0.91666667  0.00000000
  0.02777778  0.94444444  0.00000000
  0.02777778  0.97222222  0.00000000
  0.05555556  0.00000000  0.00000000
  0.05555556  0.02777778  0.00000000
  0.05555556  0.05555556  0.00000000
  0.05555556  0.08333333  0.00000000
  0.05555556  0.11111111  0.00000000
  0.05555556  0.13888889  0.00000000
  0.05555556  0.16666667  0.00000000
  0.05555556  0.19444444  0.00000000
  0.05555556  0.22222222  0.00000000
  0.05555556  0.25000000  0.00000000
  0.05555556  0.27777778  0.00000000
  0.05555556  0.30555556  0.00000000
  0.05555556  0.33333333  0.00000000
  0.05555556  0.36111111  0.00000000
  0.05555556  0.38888889  0.00000000
  0.05555556  0.41666667  0.00000000
  0.05555556  0.44444444  0.00000000
  0.05555556  0.47222222  0.00000000
  0.05555556  0.50000000  0.00000000
  0.05555556  0.52777778  0.00000000
  0.05555556  0.55555556  0.00000000
  0.05555556  0.58333333  0.00000000
  0.05555556  0.61111111  0.00000000
  0.05555556  0.63888889  0.00000000
  0.05555556  0.66666667  0.00000000
  0.05555556  0.69444444  0.00000000
  0.05555556  0.72222222  0.00000000
  0.05555556  0.75000000  0.00000000
  0.05555556  0.77777778  0.00000000
  0.05555556  0.80555556  0.00000000
  0.05555556  0.83333333  0.00000000
  0.05555556  0.86111111  0.00000000
  0.05555556  0.88888889  0.00000000
  0.05555556  0.91666667  0.00000000
  0.05555556  0.94444444  0.00000000
  0.05555556  0.97222222  0.00000000
  0.08333333  0.00000000  0.00000000
  0.08333333  0.02777778  0.00000000
  0.08333333  0.05555556  0.00000000
  0.08333333  0.08333333  0.00000000
  0.08333333  0.11111111  0.00000000
  0.08333333  0.13888889  0.00000000
  0.08333333  0.16666667  0.00000000
  0.08333333  0.19444444  0.00000000
  0.08333333  0.22222222  0.00000000
  0.08333333  0.25000000  0.00000000
  0.08333333  0.27777778  0.00000000
  0.08333333  0.30555556  0.00000000
  0.08333333  0.33333333  0.00000000
  0.08333333  0.36111111  0.00000000
  0.08333333  0.38888889  0.00000000
  0.08333333  0.41666667  0.00000000
  0.08333333  0.44444444  0.00000000
  0.08333333  0.47222222  0.00000000
  0.08333333  0.50000000  0.00000000
  0.08333333  0.52777778  0.00000000
  0.08333333  0.55555556  0.00000000
  0.08333333  0.58333333  0.00000000
  0.08333333  0.61111111  0.00000000
  0.08333333  0.63888889  0.00000000
  0.08333333  0.66666667  0.00000000
  0.08333333  0.69444444  0.00000000
  0.08333333  0.72222222  0.00000000
  0.08333333  0.75000000  0.00000000
  0.08333333  0.77777778  0.00000000
  0.08333333  0.80555556  0.00000000
  0.08333333  0.83333333  0.00000000
  0.08333333  0.86111111  0.00000000
  0.08333333  0.88888889  0.00000000
  0.08333333  0.91666667  0.00000000
  0.08333333  0.94444444  0.00000000
  0.08333333  0.97222222  0.00000000
  0.11111111  0.00000000  0.00000000
  0.11111111  0.02777778  0.00000000
  0.11111111  0.05555556  0.00000000
  0.11111111  0.08333333  0.00000000
  0.11111111  0.11111111  0.00000000
  0.11111111  0.13888889  0.00000000
  0.11111111  0.16666667  0.00000000
  0.11111111  0.19444444  0.00000000
  0.11111111  0.22222222  0.00000000
  0.11111111  0.25000000  0.00000000
  0.11111111  0.27777778  0.00000000
  0.11111111  0.30555556  0.00000000
  0.11111111  0.33333333  0.00000000
  0.11111111  0.36111111  0.00000000
  0.11111111  0.38888889  0.00000000
  0.11111111  0.41666667  0.00000000
  0.11111111  0.44444444  0.00000000
  0.11111111  0.47222222  0.00000000
  0.11111111  0.50000000  0.00000000
  0.11111111  0.52777778  0.00000000
  0.11111111  0.55555556  0.00000000
  0.11111111  0.58333333  0.00000000
  0.11111111  0.61111111  0.00000000
  0.11111111  0.63888889  0.00000000
  0.11111111  0.66666667  0.00000000
  0.11111111  0.69444444  0.00000000
  0.11111111  0.72222222  0.00000000
  0.11111111  0.75000000  0.00000000
  0.11111111  0.77777778  0.00000000
  0.11111111  0.80555556  0.00000000
  0.11111111  0.83333333  0.00000000
  0.11111111  0.86111111  0.00000000
  0.11111111  0.88888889  0.00000000
  0.11111111  0.91666667  0.00000000
  0.11111111  0.94444444  0.00000000
  0.11111111  0.97222222  0.00000000
  0.13888889  0.00000000  0.00000000
  0.13888889  0.02777778  0.00000000
  0.13888889  0.05555556  0.00000000
  0.13888889  0.08333333  0.00000000
  0.13888889  0.11111111  0.00000000
  0.13888889  0.13888889  0.00000000
  0.13888889  0.16666667  0.00000000
  0.13888889  0.19444444  0.00000000
  0.13888889  0.22222222  0.00000000
  0.13888889  0.25000000  0.00000000
  0.13888889  0.27777778  0.00000000
  0.13888889  0.30555556  0.00000000
  0.13888889  0.33333333  0.00000000
  0.13888889  0.36111111  0.00000000
  0.13888889  0.38888889  0.00000000
  0.13888889  0.41666667  0.00000000
  0.13888889  0.44444444  0.00000000
  0.13888889  0.47222222  0.00000000
  0.13888889  0.50000000  0.00000000
  0.13888889  0.52777778  0.00000000
  0.13888889  0.55555556  0.00000000
  0.13888889  0.58333333  0.00000000
  0.13888889  0.61111111  0.00000000
  0.13888889  0.63888889  0.00000000
  0.13888889  0.66666667  0.00000000
  0.13888889  0.69444444  0.00000000
  0.13888889  0.72222222  0.00000000
  0.13888889  0.75000000  0.00000000
  0.13888889  0.77777778  0.00000000
  0.13888889  0.80555556  0.00000000
  0.13888889  0.83333333  0.00000000
  0.13888889  0.86111111  0.00000000
  0.13888889  0.88888889  0.00000000
  0.13888889  0.91666667  0.00000000
  0.13888889  0.94444444  0.00000000
  0.13888889  0.97222222  0.00000000
  0.16666667  0.00000000  0.00000000
  0.16666667  0.02777778  0.00000000
  0.16666667  0.05555556  0.00000000
  0.16666667  0.08333333  0.00000000
  0.16666667  0.11111111  0.00000000
  0.16666667  0.13888889  0.00000000
  0.16666667  0.16666667  0.00000000
  0.16666667  0.19444444  0.00000000
  0.16666667  0.22222222  0.00000000
  0.16666667  0.25000000  0.00000000
  0.16666667  0.27777778  0.00000000
  0.16666667  0.30555556  0.00000000
  0.16666667  0.33333333  0.00000000
  0.16666667  0.36111111  0.00000000
  0.16666667  0.38888889  0.00000000
  0.16666667  0.41666667  0.00000000
  0.16666667  0.44444444  0.00000000
  0.16666667  0.47222222  0.00000000
  0.16666667  0.50000000  0.00000000
  0.16666667  0.52777778  0.00000000
  0.16666667  0.55555556  0.00000000
  0.16666667  0.58333333  0.00000000
  0.16666667  0.61111111  0.00000000
  0.16666667  0.63888889  0.00000000
  0.16666667  0.66666667  0.00000000
  0.16666667  0.69444444  0.00000000
  0.16666667  0.72222222  0.00000000
  0.16666667  0.75000000  0.00000000
  0.16666667  0.77777778  0.00000000
  0.16666667  0.80555556  0.00000000
  0.16666667  0.83333333  0.00000000
  0.16666667  0.86111111  0.00000000
  0.16666667  0.88888889  0.00000000
  0.16666667  0.91666667  0.00000000
  0.16666667  0.94444444  0.00000000
  0.16666667  0.97222222  0.00000000
  0.19444444  0.00000000  0.00000000
  0.19444444  0.02777778  0.00000000
  0.19444444  0.05555556  0.00000000
  0.19444444  0.08333333  0.00000000
  0.19444444  0.11111111  0.00000000
  0.19444444  0.13888889  0.00000000
  0.19444444  0.16666667  0.00000000
  0.19444444  0.19444444  0.00000000
  0.19444444  0.22222222  0.00000000
  0.19444444  0.25000000  0.00000000
  0.19444444  0.27777778  0.00000000
  0.19444444  0.30555556  0.00000000
  0.19444444  0.33333333  0.00000000
  0.19444444  0.36111111  0.00000000
  0.19444444  0.38888889  0.00000000
  0.19444444  0.41666667  0.00000000
  0.19444444  0.44444444  0.00000000
  0.19444444  0.47222222  0.00000000
  0.19444444  0.50000000  0.00000000
  0.19444444  0.52777778  0.00000000
  0.19444444  0.55555556  0.00000000
  0.19444444  0.58333333  0.00000000
  0.19444444  0.61111111  0.00000000
  0.19444444  0.63888889  0.00000000
  0.19444444  0.66666667  0.00000000
  0.19444444  0.69444444  0.00000000
  0.19444444  0.72222222  0.00000000
  0.19444444  0.75000000  0.00000000
  0.19444444  0.77777778  0.00000000
  0.19444444  0.80555556  0.00000000
  0.19444444  0.83333333  0.00000000
  0.19444444  0.86111111  0.00000000
  0.19444444  0.88888889  0.00000000
  0.19444444  0.91666667  0.00000000
  0.19444444  0.94444444  0.00000000
  0.19444444  0.97222222  0.00000000
  0.22222222  0.00000000  0.00000000
  0.22222222  0.02777778  0.00000000
  0.22222222  0.05555556  0.00000000
  0.22222222  0.08333333  0.00000000
  0.22222222  0.11111111  0.00000000
  0.22222222  0.13888889  0.00000000
  0.22222222  0.16666667  0.00000000
  0.22222222  0.19444444  0.00000000
  0.22222222  0.22222222  0.00000000
  0.22222222  0.25000000  0.00000000
  0.22222222  0.27777778  0.00000000
  0.22222222  0.30555556  0.00000000
  0.22222222  0.33333333  0.00000000
  0.22222222  0.36111111  0.00000000
  0.22222222  0.38888889  0.00000000
  0.22222222  0.41666667  0.00000000
  0.22222222  0.44444444  0.00000000
  0.22222222  0.47222222  0.00000000
  0.22222222  0.50000000  0.00000000
  0.22222222  0.52777778  0.00000000
  0.22222222  0.55555556  0.00000000
  0.22222222  0.58333333  0.00000000
  0.22222222  0.61111111  0.00000000
  0.22222222  0.63888889  0.00000000
  0.22222222  0.66666667  0.00000000
  0.22222222  0.69444444  0.00000000
  0.22222222  0.72222222  0.00000000
  0.22222222  0.75000000  0.00000000
  0.22222222  0.77777778  0.00000000
  0.22222222  0.80555556  0.00000000
  0.22222222  0.83333333  0.00000000
  0.22222222  0.86111111  0.00000000
  0.22222222  0.88888889  0.00000000
  0.22222222  0.91666667  0.00000000
  0.22222222  0.94444444  0.00000000
  0.22222222  0.97222222  0.00000000
  0.25000000  0.00000000  0.00000000
  0.25000000  0.02777778  0.00000000
  0.25000000  0.05555556  0.00000000
  0.25000000  0.08333333  0.00000000
  0.25000000  0.11111111  0.00000000
  0.25000000  0.13888889  0.00000000
  0.25000000  0.16666667  0.00000000
  0.25000000  0.19444444  0.00000000
  0.25000000  0.22222222  0.00000000
  0.25000000  0.25000000  0.00000000
  0.25000000  0.27777778  0.00000000
  0.25000000  0.30555556  0.00000000
  0.25000000  0.33333333  0.00000000
  0.25000000  0.36111111  0.00000000
  0.25000000  0.38888889  0.00000000
  0.25000000  0.41666667  0.00000000
  0.25000000  0.44444444  0.00000000
  0.25000000  0.47222222  0.00000000
  0.25000000  0.50000000  0.00000000
  0.25000000  0.52777778  0.00000000
  0.25000000  0.55555556  0.00000000
  0.25000000  0.58333333  0.00000000
  0.25000000  0.61111111  0.00000000
  0.25000000  0.63888889  0.00000000
  0.25000000  0.66666667  0.00000000
  0.25000000  0.69444444  0.00000000
  0.25000000  0.72222222  0.00000000
  0.25000000  0.75000000  0.00000000
  0.25000000  0.77777778  0.00000000
  0.25000000  0.80555556  0.00000000
  0.25000000  0.83333333  0.00000000
  0.25000000  0.86111111  0.00000000
  0.25000000  0.88888889  0.00000000
  0.25000000  0.91666667  0.00000000
  0.25000000  0.94444444  0.00000000
  0.25000000  0.97222222  0.00000000
  0.27777778  0.00000000  0.00000000
  0.27777778  0.02777778  0.00000000
  0.27777778  0.05555556  0.00000000
  0.27777778  0.08333333  0.00000000
  0.27777778  0.11111111  0.00000000
  0.27777778  0.13888889  0.00000000
  0.27777778  0.16666667  0.00000000
  0.27777778  0.19444444  0.00000000
  0.27777778  0.22222222  0.00000000
  0.27777778  0.25000000  0.00000000
  0.27777778  0.27777778  0.00000000
  0.27777778  0.30555556  0.00000000
  0.27777778  0.33333333  0.00000000
  0.27777778  0.36111111  0.00000000
  0.27777778  0.38888889  0.00000000
  0.27777778  0.41666667  0.00000000
  0.27777778  0.44444444  0.00000000
  0.27777778  0.47222222  0.00000000
  0.27777778  0.50000000  0.00000000
  0.27777778  0.52777778  0.00000000
  0.27777778  0.55555556  0.00000000
  0.27777778  0.58333333  0.00000000
  0.27777778  0.61111111  0.00000000
  0.27777778  0.63888889  0.00000000
  0.27777778  0.66666667  0.00000000
  0.27777778  0.69444444  0.00000000
  0.27777778  0.72222222  0.00000000
  0.27777778  0.75000000  0.00000000
  0.27777778  0.77777778  0.00000000
  0.27777778  0.80555556  0.00000000
  0.27777778  0.83333333  0.00000000
  0.27777778  0.86111111  0.00000000
  0.27777778  0.88888889  0.00000000
  0.27777778  0.91666667  0.00000000
  0.27777778  0.94444444  0.00000000
  0.27777778  0.97222222  0.00000000
  0.30555556  0.00000000  0.00000000
  0.30555556  0.02777778  0.00000000
  0.30555556  0.05555556  0.00000000
  0.30555556  0.08333333  0.00000000
  0.30555556  0.11111111  0.00000000
  0.30555556  0.13888889  0.00000000
  0.30555556  0.16666667  0.00000000
  0.30555556  0.19444444  0.00000000
  0.30555556  0.22222222  0.00000000
  0.30555556  0.25000000  0.00000000
  0.30555556  0.27777778  0.00000000
  0.30555556  0.30555556  0.00000000
  0.30555556  0.33333333  0.00000000
  0.30555556  0.36111111  0.00000000
  0.30555556  0.38888889  0.00000000
  0.30555556  0.41666667  0.00000000
  0.30555556  0.44444444  0.00000000
  0.30555556  0.47222222  0.00000000
  0.30555556  0.50000000  0.00000000
  0.30555556  0.52777778  0.00000000
  0.30555556  0.55555556  0.00000000
  0.30555556  0.58333333  0.00000000
  0.30555556  0.61111111  0.00000000
  0.30555556  0.63888889  0.00000000
  0.30555556  0.66666667  0.00000000
  0.30555556  0.69444444  0.00000000
  0.30555556  0.72222222  0.00000000
  0.30555556  0.75000000  0.00000000
  0.30555556  0.77777778  0.00000000
  0.30555556  0.80555556  0.00000000
  0.30555556  0.83333333  0.00000000
  0.30555556  0.86111111  0.00000000
  0.30555556  0.88888889  0.00000000
  0.30555556  0.91666667  0.00000000
  0.30555556  0.94444444  0.00000000
  0.30555556  0.97222222  0.00000000
  0.33333333  0.00000000  0.00000000
  0.33333333  0.02777778  0.00000000
  0.33333333  0.05555556  0.00000000
  0.33333333  0.08333333  0.00000000
  0.33333333  0.11111111  0.00000000
  0.33333333  0.13888889  0.00000000
  0.33333333  0.16666667  0.00000000
  0.33333333  0.19444444  0.00000000
  0.33333333  0.22222222  0.00000000
  0.33333333  0.25000000  0.00000000
  0.33333333  0.27777778  0.00000000
  0.33333333  0.30555556  0.00000000
  0.33333333  0.33333333  0.00000000
  0.33333333  0.36111111  0.00000000
  0.33333333  0.38888889  0.00000000
  0.33333333  0.41666667  0.00000000
  0.33333333  0.44444444  0.00000000
  0.33333333  0.47222222  0.00000000
  0.33333333  0.50000000  0.00000000
  0.33333333  0.52777778  0.00000000
  0.33333333  0.55555556  0.00000000
  0.33333333  0.58333333  0.00000000
  0.33333333  0.61111111  0.00000000
  0.33333333  0.63888889  0.00000000
  0.33333333  0.66666667  0.00000000
  0.33333333  0.69444444  0.00000000
  0.33333333  0.72222222  0.00000000
  0.33333333  0.75000000  0.00000000
  0.33333333  0.77777778  0.00000000
  0.33333333  0.80555556  0.00000000
  0.33333333  0.83333333  0.00000000
  0.33333333  0.86111111  0.00000000
  0.33333333  0.88888889  0.00000000
  0.33333333  0.91666667  0.00000000
  0.33333333  0.94444444  0.00000000
  0.33333333  0.97222222  0.00000000
  0.36111111  0.00000000  0.00000000
  0.36111111  0.02777778  0.00000000
  0.36111111  0.05555556  0.00000000
  0.36111111  0.08333333  0.00000000
  0.36111111  0.11111111  0.00000000
  0.36111111  0.13888889  0.00000000
  0.36111111  0.16666667  0.00000000
  0.36111111  0.19444444  0.00000000
  0.36111111  0.22222222  0.00000000
  0.36111111  0.25000000  0.00000000
  0.36111111  0.27777778  0.00000000
  0.36111111  0.30555556  0.00000000
  0.36111111  0.33333333  0.00000000
  0.36111111  0.36111111  0.00000000
  0.36111111  0.38888889  0.00000000
  0.36111111  0.41666667  0.00000000
  0.36111111  0.44444444  0.00000000
  0.36111111  0.47222222  0.00000000
  0.36111111  0.50000000  0.00000000
  0.36111111  0.52777778  0.00000000
  0.36111111  0.55555556  0.00000000
  0.36111111  0.58333333  0.00000000
  0.36111111  0.61111111  0.00000000
  0.36111111  0.63888889  0.00000000
  0.36111111  0.66666667  0.00000000
  0.36111111  0.69444444  0.00000000
  0.36111111  0.72222222  0.00000000
  0.36111111  0.75000000  0.00000000
  0.36111111  0.77777778  0.00000000
  0.36111111  0.80555556  0.00000000
  0.36111111  0.83333333  0.00000000
  0.36111111  0.86111111  0.00000000
  0.36111111  0.88888889  0.00000000
  0.36111111  0.91666667  0.00000000
  0.36111111  0.94444444  0.00000000
  0.36111111  0.97222222  0.00000000
  0.38888889  0.00000000  0.00000000
  0.38888889  0.02777778  0.00000000
  0.38888889  0.05555556  0.00000000
  0.38888889  0.08333333  0.00000000
  0.38888889  0.11111111  0.00000000
  0.38888889  0.13888889  0.00000000
  0.38888889  0.16666667  0.00000000
  0.38888889  0.19444444  0.00000000
  0.38888889  0.22222222  0.00000000
  0.38888889  0.25000000  0.00000000
  0.38888889  0.27777778  0.00000000
  0.38888889  0.30555556  0.00000000
  0.38888889  0.33333333  0.00000000
  0.38888889  0.36111111  0.00000000
  0.38888889  0.38888889  0.00000000
  0.38888889  0.41666667  0.00000000
  0.38888889  0.44444444  0.00000000
  0.38888889  0.47222222  0.00000000
  0.38888889  0.50000000  0.00000000
  0.38888889  0.52777778  0.00000000
  0.38888889  0.55555556  0.00000000
  0.38888889  0.58333333  0.00000000
  0.38888889  0.61111111  0.00000000
  0.38888889  0.63888889  0.00000000
  0.38888889  0.66666667  0.00000000
  0.38888889  0.69444444  0.00000000
  0.38888889  0.72222222  0.00000000
  0.38888889  0.75000000  0.00000000
  0.38888889  0.77777778  0.00000000
  0.38888889  0.80555556  0.00000000
  0.38888889  0.83333333  0.00000000
  0.38888889  0.86111111  0.00000000
  0.38888889  0.88888889  0.00000000
  0.38888889  0.91666667  0.00000000
  0.38888889  0.94444444  0.00000000
  0.38888889  0.97222222  0.00000000
  0.41666667  0.00000000  0.00000000
  0.41666667  0.02777778  0.00000000
  0.41666667  0.05555556  0.00000000
  0.41666667  0.08333333  0.00000000
  0.41666667  0.11111111  0.00000000
  0.41666667  0.13888889  0.00000000
  0.41666667  0.16666667  0.00000000
  0.41666667  0.19444444  0.00000000
  0.41666667  0.22222222  0.00000000
  0.41666667  0.25000000  0.00000000
  0.41666667  0.27777778  0.00000000
  0.41666667  0.30555556  0.00000000
  0.41666667  0.33333333  0.00000000
  0.41666667  0.36111111  0.00000000
  0.41666667  0.38888889  0.00000000
  0.41666667  0.41666667  0.00000000
  0.41666667  0.44444444  0.00000000
  0.41666667  0.47222222  0.00000000
  0.41666667  0.50000000  0.00000000
  0.41666667  0.52777778  0.00000000
  0.41666667  0.55555556  0.00000000
  0.41666667  0.58333333  0.00000000
  0.41666667  0.61111111  0.00000000
  0.41666667  0.63888889  0.00000000
  0.41666667  0.66666667  0.00000000
  0.41666667  0.69444444  0.00000000
  0.41666667  0.72222222  0.00000000
  0.41666667  0.75000000  0.00000000
  0.41666667  0.77777778  0.00000000
  0.41666667  0.80555556  0.00000000
  0.41666667  0.83333333  0.00000000
  0.41666667  0.86111111  0.00000000
  0.41666667  0.88888889  0.00000000
  0.41666667  0.91666667  0.00000000
  0.41666667  0.94444444  0.00000000
  0.41666667  0.97222222  0.00000000
  0.44444444  0.00000000  0.00000000
  0.44444444  0.02777778  0.00000000
  0.44444444  0.05555556  0.00000000
  0.44444444  0.08333333  0.00000000
  0.44444444  0.11111111  0.00000000
  0.44444444  0.13888889  0.00000000
  0.44444444  0.16666667  0.00000000
  0.44444444  0.19444444  0.00000000
  0.44444444  0.22222222  0.00000000
  0.44444444  0.25000000  0.00000000
  0.44444444  0.27777778  0.00000000
  0.44444444  0.30555556  0.00000000
  0.44444444  0.33333333  0.00000000
  0.44444444  0.36111111  0.00000000
  0.44444444  0.38888889  0.00000000
  0.44444444  0.41666667  0.00000000
  0.44444444  0.44444444  0.00000000
  0.44444444  0.47222222  0.00000000
  0.44444444  0.50000000  0.00000000
  0.44444444  0.52777778  0.00000000
  0.44444444  0.55555556  0.00000000
  0.44444444  0.58333333  0.00000000
  0.44444444  0.61111111  0.00000000
  0.44444444  0.63888889  0.00000000
  0.44444444  0.66666667  0.00000000
  0.44444444  0.69444444  0.00000000
  0.44444444  0.72222222  0.00000000
  0.44444444  0.75000000  0.00000000
  0.44444444  0.77777778  0.00000000
  0.44444444  0.80555556  0.00000000
  0.44444444  0.83333333  0.00000000
  0.44444444  0.86111111  0.00000000
  0.44444444  0.88888889  0.00000000
  0.44444444  0.91666667  0.00000000
  0.44444444  0.94444444  0.00000000
  0.44444444  0.97222222  0.00000000
  0.47222222  0.00000000  0.00000000
  0.47222222  0.02777778  0.00000000
  0.47222222  0.05555556  0.00000000
  0.47222222  0.08333333  0.00000000
  0.47222222  0.11111111  0.00000000
  0.47222222  0.13888889  0.00000000
  0.47222222  0.16666667  0.00000000
  0.47222222  0.19444444  0.00000000
  0.47222222  0.22222222  0.00000000
  0.47222222  0.25000000  0.00000000
  0.47222222  0.27777778  0.00000000
  0.47222222  0.30555556  0.00000000
  0.47222222  0.33333333  0.00000000
  0.47222222  0.36111111  0.00000000
  0.47222222  0.38888889  0.00000000
  0.47222222  0.41666667  0.00000000
  0.47222222  0.44444444  0.00000000
  0.47222222  0.47222222  0.00000000
  0.47222222  0.50000000  0.00000000
  0.47222222  0.52777778  0.00000000
  0.47222222  0.55555556  0.00000000
  0.47222222  0.58333333  0.00000000
  0.47222222  0.61111111  0.00000000
  0.47222222  0.63888889  0.00000000
  0.47222222  0.66666667  0.00000000
  0.47222222  0.69444444  0.00000000
  0.47222222  0.72222222  0.00000000
  0.47222222  0.75000000  0.00000000
  0.47222222  0.77777778  0.00000000
  0.47222222  0.80555556  0.00000000
  0.47222222  0.83333333  0.00000000
  0.47222222  0.86111111  0.00000000
  0.47222222  0.88888889  0.00000000
  0.47222222  0.91666667  0.00000000
  0.47222222  0.94444444  0.00000000
  0.47222222  0.97222222  0.00000000
  0.50000000  0.00000000  0.00000000
  0.50000000  0.02777778  0.00000000
  0.50000000  0.05555556  0.00000000
  0.50000000  0.08333333  0.00000000
  0.50000000  0.11111111  0.00000000
  0.50000000  0.13888889  0.00000000
  0.50000000  0.16666667  0.00000000
  0.50000000  0.19444444  0.00000000
  0.50000000  0.22222222  0.00000000
  0.50000000  0.25000000  0.00000000
  0.50000000  0.27777778  0.00000000
  0.50000000  0.30555556  0.00000000
  0.50000000  0.33333333  0.00000000
  0.50000000  0.36111111  0.00000000
  0.50000000  0.38888889  0.00000000
  0.50000000  0.41666667  0.00000000
  0.50000000  0.44444444  0.00000000
  0.50000000  0.47222222  0.00000000
  0.50000000  0.50000000  0.00000000
  0.50000000  0.52777778  0.00000000
  0.50000000  0.55555556  0.00000000
  0.50000000  0.58333333  0.00000000
  0.50000000  0.61111111  0.00000000
  0.50000000  0.63888889  0.00000000
  0.50000000  0.66666667  0.00000000
  0.50000000  0.69444444  0.00000000
  0.50000000  0.72222222  0.00000000
  0.50000000  0.75000000  0.00000000
  0.50000000  0.77777778  0.00000000
  0.50000000  0.80555556  0.00000000
  0.50000000  0.83333333  0.00000000
  0.50000000  0.86111111  0.00000000
  0.50000000  0.88888889  0.00000000
  0.50000000  0.91666667  0.00000000
  0.50000000  0.94444444  0.00000000
  0.50000000  0.97222222  0.00000000
  0.52777778  0.00000000  0.00000000
  0.52777778  0.02777778  0.00000000
  0.52777778  0.05555556  0.00000000
  0.52777778  0.08333333  0.00000000
  0.52777778  0.11111111  0.00000000
  0.52777778  0.13888889  0.00000000
  0.52777778  0.16666667  0.00000000
  0.52777778  0.19444444  0.00000000
  0.52777778  0.22222222  0.00000000
  0.52777778  0.25000000  0.00000000
  0.52777778  0.27777778  0.00000000
  0.52777778  0.30555556  0.00000000
  0.52777778  0.33333333  0.00000000
  0.52777778  0.36111111  0.00000000
  0.52777778  0.38888889  0.00000000
  0.52777778  0.41666667  0.00000000
  0.52777778  0.44444444  0.00000000
  0.52777778  0.47222222  0.00000000
  0.52777778  0.50000000  0.00000000
  0.52777778  0.52777778  0.00000000
  0.52777778  0.55555556  0.00000000
  0.52777778  0.58333333  0.00000000
  0.52777778  0.61111111  0.00000000
  0.52777778  0.63888889  0.00000000
  0.52777778  0.66666667  0.00000000
  0.52777778  0.69444444  0.00000000
  0.52777778  0.72222222  0.00000000
  0.52777778  0.75000000  0.00000000
  0.52777778  0.77777778  0.00000000
  0.52777778  0.80555556  0.00000000
  0.52777778  0.83333333  0.00000000
  0.52777778  0.86111111  0.00000000
  0.52777778  0.88888889  0.00000000
  0.52777778  0.91666667  0.00000000
  0.52777778  0.94444444  0.00000000
  0.52777778  0.97222222  0.00000000
  0.55555556  0.00000000  0.00000000
  0.55555556  0.02777778  0.00000000
  0.55555556  0.05555556  0.00000000
  0.55555556  0.08333333  0.00000000
  0.55555556  0.11111111  0.00000000
  0.55555556  0.13888889  0.00000000
  0.55555556  0.16666667  0.00000000
  0.55555556  0.19444444  0.00000000
  0.55555556  0.22222222  0.00000000
  0.55555556  0.25000000  0.00000000
  0.55555556  0.27777778  0.00000000
  0.55555556  0.30555556  0.00000000
  0.55555556  0.33333333  0.00000000
  0.55555556  0.36111111  0.00000000
  0.55555556  0.38888889  0.00000000
  0.55555556  0.41666667  0.00000000
  0.55555556  0.44444444  0.00000000
  0.55555556  0.47222222  0.00000000
  0.55555556  0.50000000  0.00000000
  0.55555556  0.52777778  0.00000000
  0.55555556  0.55555556  0.00000000
  0.55555556  0.58333333  0.00000000
  0.55555556  0.61111111  0.00000000
  0.55555556  0.63888889  0.00000000
  0.55555556  0.66666667  0.00000000
  0.55555556  0.69444444  0.00000000
  0.55555556  0.72222222  0.00000000
  0.55555556  0.75000000  0.00000000
  0.55555556  0.77777778  0.00000000
  0.55555556  0.80555556  0.00000000
  0.55555556  0.83333333  0.00000000
  0.55555556  0.86111111  0.00000000
  0.55555556  0.88888889  0.00000000
  0.55555556  0.91666667  0.00000000
  0.55555556  0.94444444  0.00000000
  0.55555556  0.97222222  0.00000000
  0.58333333  0.00000000  0.00000000
  0.58333333  0.02777778  0.00000000
  0.58333333  0.05555556  0.00000000
  0.58333333  0.08333333  0.00000000
  0.58333333  0.11111111  0.00000000
  0.58333333  0.13888889  0.00000000
  0.58333333  0.16666667  0.00000000
  0.58333333  0.19444444  0.00000000
  0.58333333  0.22222222  0.00000000
  0.58333333  0.25000000  0.00000000
  0.58333333  0.27777778  0.00000000
  0.58333333  0.30555556  0.00000000
  0.58333333  0.33333333  0.00000000
  0.58333333  0.36111111  0.00000000
  0.58333333  0.38888889  0.00000000
  0.58333333  0.41666667  0.00000000
  0.58333333  0.44444444  0.00000000
  0.58333333  0.47222222  0.00000000
  0.58333333  0.50000000  0.00000000
  0.58333333  0.52777778  0.00000000