&CONTROL
    calculation   = "nscf"  
    restart_mode  = "from_scratch"
    prefix        = "graphene"
    outdir        = "./"
    pseudo_dir    = "./pseudo/"
    verbosity     = "high"
    tprnfor       = .true.
    tstress       = .true.
    etot_conv_thr =  1.0d-8
    forc_conv_thr =  1.0d-7
/

&SYSTEM
    ibrav       = 4
    nat         = 2
    ntyp        = 1
!    a           = 2.467196594915731
!    c           = 20.0
 celldm(1) =      4.66232677
 celldm(3) =      8.10636498
    nbnd        = 36
    occupations = "smearing"
    smearing    = "mp"    
    degauss     =  1.0d-2
    ecutwfc     =  80
    ecutrho     =  480
/

&ELECTRONS
    conv_thr         =  1.000e-12
    electron_maxstep =  200
    mixing_beta      =  7.00000e-01
    startingpot      = "atomic"
    startingwfc      = "atomic+random"
/

!&IONS
!    ion_dynamics = "bfgs"
!/

!&CELL
!    cell_dofree    = "ibrav+2Dxy"
!    cell_dynamics  = "bfgs"
!    press_conv_thr =  0.001
!/

ATOMIC_SPECIES
C      12.01070  C.pbe-n-kjpaw_psl.1.0.0.UPF

ATOMIC_POSITIONS {crystal}
C       0.333333333333333   0.666666666666667   0.500000
C       0.666666666666667   0.333333333333333   0.500000

!K_POINTS {automatic}
! 36  36  1  0 0 0

K_POINTS crystal
1296
  0.00000000  0.00000000  0.00000000  7.716049e-04
  0.00000000  0.02777778  0.00000000  7.716049e-04
  0.00000000  0.05555556  0.00000000  7.716049e-04
  0.00000000  0.08333333  0.00000000  7.716049e-04
  0.00000000  0.11111111  0.00000000  7.716049e-04
  0.00000000  0.13888889  0.00000000  7.716049e-04
  0.00000000  0.16666667  0.00000000  7.716049e-04
  0.00000000  0.19444444  0.00000000  7.716049e-04
  0.00000000  0.22222222  0.00000000  7.716049e-04
  0.00000000  0.25000000  0.00000000  7.716049e-04
  0.00000000  0.27777778  0.00000000  7.716049e-04
  0.00000000  0.30555556  0.00000000  7.716049e-04
  0.00000000  0.33333333  0.00000000  7.716049e-04
  0.00000000  0.36111111  0.00000000  7.716049e-04
  0.00000000  0.38888889  0.00000000  7.716049e-04
  0.00000000  0.41666667  0.00000000  7.716049e-04
  0.00000000  0.44444444  0.00000000  7.716049e-04
  0.00000000  0.47222222  0.00000000  7.716049e-04
  0.00000000  0.50000000  0.00000000  7.716049e-04
  0.00000000  0.52777778  0.00000000  7.716049e-04
  0.00000000  0.55555556  0.00000000  7.716049e-04
  0.00000000  0.58333333  0.00000000  7.716049e-04
  0.00000000  0.61111111  0.00000000  7.716049e-04
  0.00000000  0.63888889  0.00000000  7.716049e-04
  0.00000000  0.66666667  0.00000000  7.716049e-04
  0.00000000  0.69444444  0.00000000  7.716049e-04
  0.00000000  0.72222222  0.00000000  7.716049e-04
  0.00000000  0.75000000  0.00000000  7.716049e-04
  0.00000000  0.77777778  0.00000000  7.716049e-04
  0.00000000  0.80555556  0.00000000  7.716049e-04
  0.00000000  0.83333333  0.00000000  7.716049e-04
  0.00000000  0.86111111  0.00000000  7.716049e-04
  0.00000000  0.88888889  0.00000000  7.716049e-04
  0.00000000  0.91666667  0.00000000  7.716049e-04
  0.00000000  0.94444444  0.00000000  7.716049e-04
  0.00000000  0.97222222  0.00000000  7.716049e-04
  0.02777778  0.00000000  0.00000000  7.716049e-04
  0.02777778  0.02777778  0.00000000  7.716049e-04
  0.02777778  0.05555556  0.00000000  7.716049e-04
  0.02777778  0.08333333  0.00000000  7.716049e-04
  0.02777778  0.11111111  0.00000000  7.716049e-04
  0.02777778  0.13888889  0.00000000  7.716049e-04
  0.02777778  0.16666667  0.00000000  7.716049e-04
  0.02777778  0.19444444  0.00000000  7.716049e-04
  0.02777778  0.22222222  0.00000000  7.716049e-04
  0.02777778  0.25000000  0.00000000  7.716049e-04
  0.02777778  0.27777778  0.00000000  7.716049e-04
  0.02777778  0.30555556  0.00000000  7.716049e-04
  0.02777778  0.33333333  0.00000000  7.716049e-04
  0.02777778  0.36111111  0.00000000  7.716049e-04
  0.02777778  0.38888889  0.00000000  7.716049e-04
  0.02777778  0.41666667  0.00000000  7.716049e-04
  0.02777778  0.44444444  0.00000000  7.716049e-04
  0.02777778  0.47222222  0.00000000  7.716049e-04
  0.02777778  0.50000000  0.00000000  7.716049e-04
  0.02777778  0.52777778  0.00000000  7.716049e-04
  0.02777778  0.55555556  0.00000000  7.716049e-04
  0.02777778  0.58333333  0.00000000  7.716049e-04
  0.02777778  0.61111111  0.00000000  7.716049e-04
  0.02777778  0.63888889  0.00000000  7.716049e-04
  0.02777778  0.66666667  0.00000000  7.716049e-04
  0.02777778  0.69444444  0.00000000  7.716049e-04
  0.02777778  0.72222222  0.00000000  7.716049e-04
  0.02777778  0.75000000  0.00000000  7.716049e-04
  0.02777778  0.77777778  0.00000000  7.716049e-04
  0.02777778  0.80555556  0.00000000  7.716049e-04
  0.02777778  0.83333333  0.00000000  7.716049e-04
  0.02777778  0.86111111  0.00000000  7.716049e-04
  0.02777778  0.88888889  0.00000000  7.716049e-04
  0.02777778  0.91666667  0.00000000  7.716049e-04
  0.02777778  0.94444444  0.00000000  7.716049e-04
  0.02777778  0.97222222  0.00000000  7.716049e-04
  0.05555556  0.00000000  0.00000000  7.716049e-04
  0.05555556  0.02777778  0.00000000  7.716049e-04
  0.05555556  0.05555556  0.00000000  7.716049e-04
  0.05555556  0.08333333  0.00000000  7.716049e-04
  0.05555556  0.11111111  0.00000000  7.716049e-04
  0.05555556  0.13888889  0.00000000  7.716049e-04
  0.05555556  0.16666667  0.00000000  7.716049e-04
  0.05555556  0.19444444  0.00000000  7.716049e-04
  0.05555556  0.22222222  0.00000000  7.716049e-04
  0.05555556  0.25000000  0.00000000  7.716049e-04
  0.05555556  0.27777778  0.00000000  7.716049e-04
  0.05555556  0.30555556  0.00000000  7.716049e-04
  0.05555556  0.33333333  0.00000000  7.716049e-04
  0.05555556  0.36111111  0.00000000  7.716049e-04
  0.05555556  0.38888889  0.00000000  7.716049e-04
  0.05555556  0.41666667  0.00000000  7.716049e-04
  0.05555556  0.44444444  0.00000000  7.716049e-04
  0.05555556  0.47222222  0.00000000  7.716049e-04
  0.05555556  0.50000000  0.00000000  7.716049e-04
  0.05555556  0.52777778  0.00000000  7.716049e-04
  0.05555556  0.55555556  0.00000000  7.716049e-04
  0.05555556  0.58333333  0.00000000  7.716049e-04
  0.05555556  0.61111111  0.00000000  7.716049e-04
  0.05555556  0.63888889  0.00000000  7.716049e-04
  0.05555556  0.66666667  0.00000000  7.716049e-04
  0.05555556  0.69444444  0.00000000  7.716049e-04
  0.05555556  0.72222222  0.00000000  7.716049e-04
  0.05555556  0.75000000  0.00000000  7.716049e-04
  0.05555556  0.77777778  0.00000000  7.716049e-04
  0.05555556  0.80555556  0.00000000  7.716049e-04
  0.05555556  0.83333333  0.00000000  7.716049e-04
  0.05555556  0.86111111  0.00000000  7.716049e-04
  0.05555556  0.88888889  0.00000000  7.716049e-04
  0.05555556  0.91666667  0.00000000  7.716049e-04
  0.05555556  0.94444444  0.00000000  7.716049e-04
  0.05555556  0.97222222  0.00000000  7.716049e-04
  0.08333333  0.00000000  0.00000000  7.716049e-04
  0.08333333  0.02777778  0.00000000  7.716049e-04
  0.08333333  0.05555556  0.00000000  7.716049e-04
  0.08333333  0.08333333  0.00000000  7.716049e-04
  0.08333333  0.11111111  0.00000000  7.716049e-04
  0.08333333  0.13888889  0.00000000  7.716049e-04
  0.08333333  0.16666667  0.00000000  7.716049e-04
  0.08333333  0.19444444  0.00000000  7.716049e-04
  0.08333333  0.22222222  0.00000000  7.716049e-04
  0.08333333  0.25000000  0.00000000  7.716049e-04
  0.08333333  0.27777778  0.00000000  7.716049e-04
  0.08333333  0.30555556  0.00000000  7.716049e-04
  0.08333333  0.33333333  0.00000000  7.716049e-04
  0.08333333  0.36111111  0.00000000  7.716049e-04
  0.08333333  0.38888889  0.00000000  7.716049e-04
  0.08333333  0.41666667  0.00000000  7.716049e-04
  0.08333333  0.44444444  0.00000000  7.716049e-04
  0.08333333  0.47222222  0.00000000  7.716049e-04
  0.08333333  0.50000000  0.00000000  7.716049e-04
  0.08333333  0.52777778  0.00000000  7.716049e-04
  0.08333333  0.55555556  0.00000000  7.716049e-04
  0.08333333  0.58333333  0.00000000  7.716049e-04
  0.08333333  0.61111111  0.00000000  7.716049e-04
  0.08333333  0.63888889  0.00000000  7.716049e-04
  0.08333333  0.66666667  0.00000000  7.716049e-04
  0.08333333  0.69444444  0.00000000  7.716049e-04
  0.08333333  0.72222222  0.00000000  7.716049e-04
  0.08333333  0.75000000  0.00000000  7.716049e-04
  0.08333333  0.77777778  0.00000000  7.716049e-04
  0.08333333  0.80555556  0.00000000  7.716049e-04
  0.08333333  0.83333333  0.00000000  7.716049e-04
  0.08333333  0.86111111  0.00000000  7.716049e-04
  0.08333333  0.88888889  0.00000000  7.716049e-04
  0.08333333  0.91666667  0.00000000  7.716049e-04
  0.08333333  0.94444444  0.00000000  7.716049e-04
  0.08333333  0.97222222  0.00000000  7.716049e-04
  0.11111111  0.00000000  0.00000000  7.716049e-04
  0.11111111  0.02777778  0.00000000  7.716049e-04
  0.11111111  0.05555556  0.00000000  7.716049e-04
  0.11111111  0.08333333  0.00000000  7.716049e-04
  0.11111111  0.11111111  0.00000000  7.716049e-04
  0.11111111  0.13888889  0.00000000  7.716049e-04
  0.11111111  0.16666667  0.00000000  7.716049e-04
  0.11111111  0.19444444  0.00000000  7.716049e-04
  0.11111111  0.22222222  0.00000000  7.716049e-04
  0.11111111  0.25000000  0.00000000  7.716049e-04
  0.11111111  0.27777778  0.00000000  7.716049e-04
  0.11111111  0.30555556  0.00000000  7.716049e-04
  0.11111111  0.33333333  0.00000000  7.716049e-04
  0.11111111  0.36111111  0.00000000  7.716049e-04
  0.11111111  0.38888889  0.00000000  7.716049e-04
  0.11111111  0.41666667  0.00000000  7.716049e-04
  0.11111111  0.44444444  0.00000000  7.716049e-04
  0.11111111  0.47222222  0.00000000  7.716049e-04
  0.11111111  0.50000000  0.00000000  7.716049e-04
  0.11111111  0.52777778  0.00000000  7.716049e-04
  0.11111111  0.55555556  0.00000000  7.716049e-04
  0.11111111  0.58333333  0.00000000  7.716049e-04
  0.11111111  0.61111111  0.00000000  7.716049e-04
  0.11111111  0.63888889  0.00000000  7.716049e-04
  0.11111111  0.66666667  0.00000000  7.716049e-04
  0.11111111  0.69444444  0.00000000  7.716049e-04
  0.11111111  0.72222222  0.00000000  7.716049e-04
  0.11111111  0.75000000  0.00000000  7.716049e-04
  0.11111111  0.77777778  0.00000000  7.716049e-04
  0.11111111  0.80555556  0.00000000  7.716049e-04
  0.11111111  0.83333333  0.00000000  7.716049e-04
  0.11111111  0.86111111  0.00000000  7.716049e-04
  0.11111111  0.88888889  0.00000000  7.716049e-04
  0.11111111  0.91666667  0.00000000  7.716049e-04
  0.11111111  0.94444444  0.00000000  7.716049e-04
  0.11111111  0.97222222  0.00000000  7.716049e-04
  0.13888889  0.00000000  0.00000000  7.716049e-04
  0.13888889  0.02777778  0.00000000  7.716049e-04
  0.13888889  0.05555556  0.00000000  7.716049e-04
  0.13888889  0.08333333  0.00000000  7.716049e-04
  0.13888889  0.11111111  0.00000000  7.716049e-04
  0.13888889  0.13888889  0.00000000  7.716049e-04
  0.13888889  0.16666667  0.00000000  7.716049e-04
  0.13888889  0.19444444  0.00000000  7.716049e-04
  0.13888889  0.22222222  0.00000000  7.716049e-04
  0.13888889  0.25000000  0.00000000  7.716049e-04
  0.13888889  0.27777778  0.00000000  7.716049e-04
  0.13888889  0.30555556  0.00000000  7.716049e-04
  0.13888889  0.33333333  0.00000000  7.716049e-04
  0.13888889  0.36111111  0.00000000  7.716049e-04
  0.13888889  0.38888889  0.00000000  7.716049e-04
  0.13888889  0.41666667  0.00000000  7.716049e-04
  0.13888889  0.44444444  0.00000000  7.716049e-04
  0.13888889  0.47222222  0.00000000  7.716049e-04
  0.13888889  0.50000000  0.00000000  7.716049e-04
  0.13888889  0.52777778  0.00000000  7.716049e-04
  0.13888889  0.55555556  0.00000000  7.716049e-04
  0.13888889  0.58333333  0.00000000  7.716049e-04
  0.13888889  0.61111111  0.00000000  7.716049e-04
  0.13888889  0.63888889  0.00000000  7.716049e-04
  0.13888889  0.66666667  0.00000000  7.716049e-04
  0.13888889  0.69444444  0.00000000  7.716049e-04
  0.13888889  0.72222222  0.00000000  7.716049e-04
  0.13888889  0.75000000  0.00000000  7.716049e-04
  0.13888889  0.77777778  0.00000000  7.716049e-04
  0.13888889  0.80555556  0.00000000  7.716049e-04
  0.13888889  0.83333333  0.00000000  7.716049e-04
  0.13888889  0.86111111  0.00000000  7.716049e-04
  0.13888889  0.88888889  0.00000000  7.716049e-04
  0.13888889  0.91666667  0.00000000  7.716049e-04
  0.13888889  0.94444444  0.00000000  7.716049e-04
  0.13888889  0.97222222  0.00000000  7.716049e-04
  0.16666667  0.00000000  0.00000000  7.716049e-04
  0.16666667  0.02777778  0.00000000  7.716049e-04
  0.16666667  0.05555556  0.00000000  7.716049e-04
  0.16666667  0.08333333  0.00000000  7.716049e-04
  0.16666667  0.11111111  0.00000000  7.716049e-04
  0.16666667  0.13888889  0.00000000  7.716049e-04
  0.16666667  0.16666667  0.00000000  7.716049e-04
  0.16666667  0.19444444  0.00000000  7.716049e-04
  0.16666667  0.22222222  0.00000000  7.716049e-04
  0.16666667  0.25000000  0.00000000  7.716049e-04
  0.16666667  0.27777778  0.00000000  7.716049e-04
  0.16666667  0.30555556  0.00000000  7.716049e-04
  0.16666667  0.33333333  0.00000000  7.716049e-04
  0.16666667  0.36111111  0.00000000  7.716049e-04
  0.16666667  0.38888889  0.00000000  7.716049e-04
  0.16666667  0.41666667  0.00000000  7.716049e-04
  0.16666667  0.44444444  0.00000000  7.716049e-04
  0.16666667  0.47222222  0.00000000  7.716049e-04
  0.16666667  0.50000000  0.00000000  7.716049e-04
  0.16666667  0.52777778  0.00000000  7.716049e-04
  0.16666667  0.55555556  0.00000000  7.716049e-04
  0.16666667  0.58333333  0.00000000  7.716049e-04
  0.16666667  0.61111111  0.00000000  7.716049e-04
  0.16666667  0.63888889  0.00000000  7.716049e-04
  0.16666667  0.66666667  0.00000000  7.716049e-04
  0.16666667  0.69444444  0.00000000  7.716049e-04
  0.16666667  0.72222222  0.00000000  7.716049e-04
  0.16666667  0.75000000  0.00000000  7.716049e-04
  0.16666667  0.77777778  0.00000000  7.716049e-04
  0.16666667  0.80555556  0.00000000  7.716049e-04
  0.16666667  0.83333333  0.00000000  7.716049e-04
  0.16666667  0.86111111  0.00000000  7.716049e-04
  0.16666667  0.88888889  0.00000000  7.716049e-04
  0.16666667  0.91666667  0.00000000  7.716049e-04
  0.16666667  0.94444444  0.00000000  7.716049e-04
  0.16666667  0.97222222  0.00000000  7.716049e-04
  0.19444444  0.00000000  0.00000000  7.716049e-04
  0.19444444  0.02777778  0.00000000  7.716049e-04
  0.19444444  0.05555556  0.00000000  7.716049e-04
  0.19444444  0.08333333  0.00000000  7.716049e-04
  0.19444444  0.11111111  0.00000000  7.716049e-04
  0.19444444  0.13888889  0.00000000  7.716049e-04
  0.19444444  0.16666667  0.00000000  7.716049e-04
  0.19444444  0.19444444  0.00000000  7.716049e-04
  0.19444444  0.22222222  0.00000000  7.716049e-04
  0.19444444  0.25000000  0.00000000  7.716049e-04
  0.19444444  0.27777778  0.00000000  7.716049e-04
  0.19444444  0.30555556  0.00000000  7.716049e-04
  0.19444444  0.33333333  0.00000000  7.716049e-04
  0.19444444  0.36111111  0.00000000  7.716049e-04
  0.19444444  0.38888889  0.00000000  7.716049e-04
  0.19444444  0.41666667  0.00000000  7.716049e-04
  0.19444444  0.44444444  0.00000000  7.716049e-04
  0.19444444  0.47222222  0.00000000  7.716049e-04
  0.19444444  0.50000000  0.00000000  7.716049e-04
  0.19444444  0.52777778  0.00000000  7.716049e-04
  0.19444444  0.55555556  0.00000000  7.716049e-04
  0.19444444  0.58333333  0.00000000  7.716049e-04
  0.19444444  0.61111111  0.00000000  7.716049e-04
  0.19444444  0.63888889  0.00000000  7.716049e-04
  0.19444444  0.66666667  0.00000000  7.716049e-04
  0.19444444  0.69444444  0.00000000  7.716049e-04
  0.19444444  0.72222222  0.00000000  7.716049e-04
  0.19444444  0.75000000  0.00000000  7.716049e-04
  0.19444444  0.77777778  0.00000000  7.716049e-04
  0.19444444  0.80555556  0.00000000  7.716049e-04
  0.19444444  0.83333333  0.00000000  7.716049e-04
  0.19444444  0.86111111  0.00000000  7.716049e-04
  0.19444444  0.88888889  0.00000000  7.716049e-04
  0.19444444  0.91666667  0.00000000  7.716049e-04
  0.19444444  0.94444444  0.00000000  7.716049e-04
  0.19444444  0.97222222  0.00000000  7.716049e-04
  0.22222222  0.00000000  0.00000000  7.716049e-04
  0.22222222  0.02777778  0.00000000  7.716049e-04
  0.22222222  0.05555556  0.00000000  7.716049e-04
  0.22222222  0.08333333  0.00000000  7.716049e-04
  0.22222222  0.11111111  0.00000000  7.716049e-04
  0.22222222  0.13888889  0.00000000  7.716049e-04
  0.22222222  0.16666667  0.00000000  7.716049e-04
  0.22222222  0.19444444  0.00000000  7.716049e-04
  0.22222222  0.22222222  0.00000000  7.716049e-04
  0.22222222  0.25000000  0.00000000  7.716049e-04
  0.22222222  0.27777778  0.00000000  7.716049e-04
  0.22222222  0.30555556  0.00000000  7.716049e-04
  0.22222222  0.33333333  0.00000000  7.716049e-04
  0.22222222  0.36111111  0.00000000  7.716049e-04
  0.22222222  0.38888889  0.00000000  7.716049e-04
  0.22222222  0.41666667  0.00000000  7.716049e-04
  0.22222222  0.44444444  0.00000000  7.716049e-04
  0.22222222  0.47222222  0.00000000  7.716049e-04
  0.22222222  0.50000000  0.00000000  7.716049e-04
  0.22222222  0.52777778  0.00000000  7.716049e-04
  0.22222222  0.55555556  0.00000000  7.716049e-04
  0.22222222  0.58333333  0.00000000  7.716049e-04
  0.22222222  0.61111111  0.00000000  7.716049e-04
  0.22222222  0.63888889  0.00000000  7.716049e-04
  0.22222222  0.66666667  0.00000000  7.716049e-04
  0.22222222  0.69444444  0.00000000  7.716049e-04
  0.22222222  0.72222222  0.00000000  7.716049e-04
  0.22222222  0.75000000  0.00000000  7.716049e-04
  0.22222222  0.77777778  0.00000000  7.716049e-04
  0.22222222  0.80555556  0.00000000  7.716049e-04
  0.22222222  0.83333333  0.00000000  7.716049e-04
  0.22222222  0.86111111  0.00000000  7.716049e-04
  0.22222222  0.88888889  0.00000000  7.716049e-04
  0.22222222  0.91666667  0.00000000  7.716049e-04
  0.22222222  0.94444444  0.00000000  7.716049e-04
  0.22222222  0.97222222  0.00000000  7.716049e-04
  0.25000000  0.00000000  0.00000000  7.716049e-04
  0.25000000  0.02777778  0.00000000  7.716049e-04
  0.25000000  0.05555556  0.00000000  7.716049e-04
  0.25000000  0.08333333  0.00000000  7.716049e-04
  0.25000000  0.11111111  0.00000000  7.716049e-04
  0.25000000  0.13888889  0.00000000  7.716049e-04
  0.25000000  0.16666667  0.00000000  7.716049e-04
  0.25000000  0.19444444  0.00000000  7.716049e-04
  0.25000000  0.22222222  0.00000000  7.716049e-04
  0.25000000  0.25000000  0.00000000  7.716049e-04
  0.25000000  0.27777778  0.00000000  7.716049e-04
  0.25000000  0.30555556  0.00000000  7.716049e-04
  0.25000000  0.33333333  0.00000000  7.716049e-04
  0.25000000  0.36111111  0.00000000  7.716049e-04
  0.25000000  0.38888889  0.00000000  7.716049e-04
  0.25000000  0.41666667  0.00000000  7.716049e-04
  0.25000000  0.44444444  0.00000000  7.716049e-04
  0.25000000  0.47222222  0.00000000  7.716049e-04
  0.25000000  0.50000000  0.00000000  7.716049e-04
  0.25000000  0.52777778  0.00000000  7.716049e-04
  0.25000000  0.55555556  0.00000000  7.716049e-04
  0.25000000  0.58333333  0.00000000  7.716049e-04
  0.25000000  0.61111111  0.00000000  7.716049e-04
  0.25000000  0.63888889  0.00000000  7.716049e-04
  0.25000000  0.66666667  0.00000000  7.716049e-04
  0.25000000  0.69444444  0.00000000  7.716049e-04
  0.25000000  0.72222222  0.00000000  7.716049e-04
  0.25000000  0.75000000  0.00000000  7.716049e-04
  0.25000000  0.77777778  0.00000000  7.716049e-04
  0.25000000  0.80555556  0.00000000  7.716049e-04
  0.25000000  0.83333333  0.00000000  7.716049e-04
  0.25000000  0.86111111  0.00000000  7.716049e-04
  0.25000000  0.88888889  0.00000000  7.716049e-04
  0.25000000  0.91666667  0.00000000  7.716049e-04
  0.25000000  0.94444444  0.00000000  7.716049e-04
  0.25000000  0.97222222  0.00000000  7.716049e-04
  0.27777778  0.00000000  0.00000000  7.716049e-04
  0.27777778  0.02777778  0.00000000  7.716049e-04
  0.27777778  0.05555556  0.00000000  7.716049e-04
  0.27777778  0.08333333  0.00000000  7.716049e-04
  0.27777778  0.11111111  0.00000000  7.716049e-04
  0.27777778  0.13888889  0.00000000  7.716049e-04
  0.27777778  0.16666667  0.00000000  7.716049e-04
  0.27777778  0.19444444  0.00000000  7.716049e-04
  0.27777778  0.22222222  0.00000000  7.716049e-04
  0.27777778  0.25000000  0.00000000  7.716049e-04
  0.27777778  0.27777778  0.00000000  7.716049e-04
  0.27777778  0.30555556  0.00000000  7.716049e-04
  0.27777778  0.33333333  0.00000000  7.716049e-04
  0.27777778  0.36111111  0.00000000  7.716049e-04
  0.27777778  0.38888889  0.00000000  7.716049e-04
  0.27777778  0.41666667  0.00000000  7.716049e-04
  0.27777778  0.44444444  0.00000000  7.716049e-04
  0.27777778  0.47222222  0.00000000  7.716049e-04
  0.27777778  0.50000000  0.00000000  7.716049e-04
  0.27777778  0.52777778  0.00000000  7.716049e-04
  0.27777778  0.55555556  0.00000000  7.716049e-04
  0.27777778  0.58333333  0.00000000  7.716049e-04
  0.27777778  0.61111111  0.00000000  7.716049e-04
  0.27777778  0.63888889  0.00000000  7.716049e-04
  0.27777778  0.66666667  0.00000000  7.716049e-04
  0.27777778  0.69444444  0.00000000  7.716049e-04
  0.27777778  0.72222222  0.00000000  7.716049e-04
  0.27777778  0.75000000  0.00000000  7.716049e-04
  0.27777778  0.77777778  0.00000000  7.716049e-04
  0.27777778  0.80555556  0.00000000  7.716049e-04
  0.27777778  0.83333333  0.00000000  7.716049e-04
  0.27777778  0.86111111  0.00000000  7.716049e-04
  0.27777778  0.88888889  0.00000000  7.716049e-04
  0.27777778  0.91666667  0.00000000  7.716049e-04
  0.27777778  0.94444444  0.00000000  7.716049e-04
  0.27777778  0.97222222  0.00000000  7.716049e-04
  0.30555556  0.00000000  0.00000000  7.716049e-04
  0.30555556  0.02777778  0.00000000  7.716049e-04
  0.30555556  0.05555556  0.00000000  7.716049e-04
  0.30555556  0.08333333  0.00000000  7.716049e-04
  0.30555556  0.11111111  0.00000000  7.716049e-04
  0.30555556  0.13888889  0.00000000  7.716049e-04
  0.30555556  0.16666667  0.00000000  7.716049e-04
  0.30555556  0.19444444  0.00000000  7.716049e-04
  0.30555556  0.22222222  0.00000000  7.716049e-04
  0.30555556  0.25000000  0.00000000  7.716049e-04
  0.30555556  0.27777778  0.00000000  7.716049e-04
  0.30555556  0.30555556  0.00000000  7.716049e-04
  0.30555556  0.33333333  0.00000000  7.716049e-04
  0.30555556  0.36111111  0.00000000  7.716049e-04
  0.30555556  0.38888889  0.00000000  7.716049e-04
  0.30555556  0.41666667  0.00000000  7.716049e-04
  0.30555556  0.44444444  0.00000000  7.716049e-04
  0.30555556  0.47222222  0.00000000  7.716049e-04
  0.30555556  0.50000000  0.00000000  7.716049e-04
  0.30555556  0.52777778  0.00000000  7.716049e-04
  0.30555556  0.55555556  0.00000000  7.716049e-04
  0.30555556  0.58333333  0.00000000  7.716049e-04
  0.30555556  0.61111111  0.00000000  7.716049e-04
  0.30555556  0.63888889  0.00000000  7.716049e-04
  0.30555556  0.66666667  0.00000000  7.716049e-04
  0.30555556  0.69444444  0.00000000  7.716049e-04
  0.30555556  0.72222222  0.00000000  7.716049e-04
  0.30555556  0.75000000  0.00000000  7.716049e-04
  0.30555556  0.77777778  0.00000000  7.716049e-04
  0.30555556  0.80555556  0.00000000  7.716049e-04
  0.30555556  0.83333333  0.00000000  7.716049e-04
  0.30555556  0.86111111  0.00000000  7.716049e-04
  0.30555556  0.88888889  0.00000000  7.716049e-04
  0.30555556  0.91666667  0.00000000  7.716049e-04
  0.30555556  0.94444444  0.00000000  7.716049e-04
  0.30555556  0.97222222  0.00000000  7.716049e-04
  0.33333333  0.00000000  0.00000000  7.716049e-04
  0.33333333  0.02777778  0.00000000  7.716049e-04
  0.33333333  0.05555556  0.00000000  7.716049e-04
  0.33333333  0.08333333  0.00000000  7.716049e-04
  0.33333333  0.11111111  0.00000000  7.716049e-04
  0.33333333  0.13888889  0.00000000  7.716049e-04
  0.33333333  0.16666667  0.00000000  7.716049e-04
  0.33333333  0.19444444  0.00000000  7.716049e-04
  0.33333333  0.22222222  0.00000000  7.716049e-04
  0.33333333  0.25000000  0.00000000  7.716049e-04
  0.33333333  0.27777778  0.00000000  7.716049e-04
  0.33333333  0.30555556  0.00000000  7.716049e-04
  0.33333333  0.33333333  0.00000000  7.716049e-04
  0.33333333  0.36111111  0.00000000  7.716049e-04
  0.33333333  0.38888889  0.00000000  7.716049e-04
  0.33333333  0.41666667  0.00000000  7.716049e-04
  0.33333333  0.44444444  0.00000000  7.716049e-04
  0.33333333  0.47222222  0.00000000  7.716049e-04
  0.33333333  0.50000000  0.00000000  7.716049e-04
  0.33333333  0.52777778  0.00000000  7.716049e-04
  0.33333333  0.55555556  0.00000000  7.716049e-04
  0.33333333  0.58333333  0.00000000  7.716049e-04
  0.33333333  0.61111111  0.00000000  7.716049e-04
  0.33333333  0.63888889  0.00000000  7.716049e-04
  0.33333333  0.66666667  0.00000000  7.716049e-04
  0.33333333  0.69444444  0.00000000  7.716049e-04
  0.33333333  0.72222222  0.00000000  7.716049e-04
  0.33333333  0.75000000  0.00000000  7.716049e-04
  0.33333333  0.77777778  0.00000000  7.716049e-04
  0.33333333  0.80555556  0.00000000  7.716049e-04
  0.33333333  0.83333333  0.00000000  7.716049e-04
  0.33333333  0.86111111  0.00000000  7.716049e-04
  0.33333333  0.88888889  0.00000000  7.716049e-04
  0.33333333  0.91666667  0.00000000  7.716049e-04
  0.33333333  0.94444444  0.00000000  7.716049e-04
  0.33333333  0.97222222  0.00000000  7.716049e-04
  0.36111111  0.00000000  0.00000000  7.716049e-04
  0.36111111  0.02777778  0.00000000  7.716049e-04
  0.36111111  0.05555556  0.00000000  7.716049e-04
  0.36111111  0.08333333  0.00000000  7.716049e-04
  0.36111111  0.11111111  0.00000000  7.716049e-04
  0.36111111  0.13888889  0.00000000  7.716049e-04
  0.36111111  0.16666667  0.00000000  7.716049e-04
  0.36111111  0.19444444  0.00000000  7.716049e-04
  0.36111111  0.22222222  0.00000000  7.716049e-04
  0.36111111  0.25000000  0.00000000  7.716049e-04
  0.36111111  0.27777778  0.00000000  7.716049e-04
  0.36111111  0.30555556  0.00000000  7.716049e-04
  0.36111111  0.33333333  0.00000000  7.716049e-04
  0.36111111  0.36111111  0.00000000  7.716049e-04
  0.36111111  0.38888889  0.00000000  7.716049e-04
  0.36111111  0.41666667  0.00000000  7.716049e-04
  0.36111111  0.44444444  0.00000000  7.716049e-04
  0.36111111  0.47222222  0.00000000  7.716049e-04
  0.36111111  0.50000000  0.00000000  7.716049e-04
  0.36111111  0.52777778  0.00000000  7.716049e-04
  0.36111111  0.55555556  0.00000000  7.716049e-04
  0.36111111  0.58333333  0.00000000  7.716049e-04
  0.36111111  0.61111111  0.00000000  7.716049e-04
  0.36111111  0.63888889  0.00000000  7.716049e-04
  0.36111111  0.66666667  0.00000000  7.716049e-04
  0.36111111  0.69444444  0.00000000  7.716049e-04
  0.36111111  0.72222222  0.00000000  7.716049e-04
  0.36111111  0.75000000  0.00000000  7.716049e-04
  0.36111111  0.77777778  0.00000000  7.716049e-04
  0.36111111  0.80555556  0.00000000  7.716049e-04
  0.36111111  0.83333333  0.00000000  7.716049e-04
  0.36111111  0.86111111  0.00000000  7.716049e-04
  0.36111111  0.88888889  0.00000000  7.716049e-04
  0.36111111  0.91666667  0.00000000  7.716049e-04
  0.36111111  0.94444444  0.00000000  7.716049e-04
  0.36111111  0.97222222  0.00000000  7.716049e-04
  0.38888889  0.00000000  0.00000000  7.716049e-04
  0.38888889  0.02777778  0.00000000  7.716049e-04
  0.38888889  0.05555556  0.00000000  7.716049e-04
  0.38888889  0.08333333  0.00000000  7.716049e-04
  0.38888889  0.11111111  0.00000000  7.716049e-04
  0.38888889  0.13888889  0.00000000  7.716049e-04
  0.38888889  0.16666667  0.00000000  7.716049e-04
  0.38888889  0.19444444  0.00000000  7.716049e-04
  0.38888889  0.22222222  0.00000000  7.716049e-04
  0.38888889  0.25000000  0.00000000  7.716049e-04
  0.38888889  0.27777778  0.00000000  7.716049e-04
  0.38888889  0.30555556  0.00000000  7.716049e-04
  0.38888889  0.33333333  0.00000000  7.716049e-04
  0.38888889  0.36111111  0.00000000  7.716049e-04
  0.38888889  0.38888889  0.00000000  7.716049e-04
  0.38888889  0.41666667  0.00000000  7.716049e-04
  0.38888889  0.44444444  0.00000000  7.716049e-04
  0.38888889  0.47222222  0.00000000  7.716049e-04
  0.38888889  0.50000000  0.00000000  7.716049e-04
  0.38888889  0.52777778  0.00000000  7.716049e-04
  0.38888889  0.55555556  0.00000000  7.716049e-04
  0.38888889  0.58333333  0.00000000  7.716049e-04
  0.38888889  0.61111111  0.00000000  7.716049e-04
  0.38888889  0.63888889  0.00000000  7.716049e-04
  0.38888889  0.66666667  0.00000000  7.716049e-04
  0.38888889  0.69444444  0.00000000  7.716049e-04
  0.38888889  0.72222222  0.00000000  7.716049e-04
  0.38888889  0.75000000  0.00000000  7.716049e-04
  0.38888889  0.77777778  0.00000000  7.716049e-04
  0.38888889  0.80555556  0.00000000  7.716049e-04
  0.38888889  0.83333333  0.00000000  7.716049e-04
  0.38888889  0.86111111  0.00000000  7.716049e-04
  0.38888889  0.88888889  0.00000000  7.716049e-04
  0.38888889  0.91666667  0.00000000  7.716049e-04
  0.38888889  0.94444444  0.00000000  7.716049e-04
  0.38888889  0.97222222  0.00000000  7.716049e-04
  0.41666667  0.00000000  0.00000000  7.716049e-04
  0.41666667  0.02777778  0.00000000  7.716049e-04
  0.41666667  0.05555556  0.00000000  7.716049e-04
  0.41666667  0.08333333  0.00000000  7.716049e-04
  0.41666667  0.11111111  0.00000000  7.716049e-04
  0.41666667  0.13888889  0.00000000  7.716049e-04
  0.41666667  0.16666667  0.00000000  7.716049e-04
  0.41666667  0.19444444  0.00000000  7.716049e-04
  0.41666667  0.22222222  0.00000000  7.716049e-04
  0.41666667  0.25000000  0.00000000  7.716049e-04
  0.41666667  0.27777778  0.00000000  7.716049e-04
  0.41666667  0.30555556  0.00000000  7.716049e-04
  0.41666667  0.33333333  0.00000000  7.716049e-04
  0.41666667  0.36111111  0.00000000  7.716049e-04
  0.41666667  0.38888889  0.00000000  7.716049e-04
  0.41666667  0.41666667  0.00000000  7.716049e-04
  0.41666667  0.44444444  0.00000000  7.716049e-04
  0.41666667  0.47222222  0.00000000  7.716049e-04
  0.41666667  0.50000000  0.00000000  7.716049e-04
  0.41666667  0.52777778  0.00000000  7.716049e-04
  0.41666667  0.55555556  0.00000000  7.716049e-04
  0.41666667  0.58333333  0.00000000  7.716049e-04
  0.41666667  0.61111111  0.00000000  7.716049e-04
  0.41666667  0.63888889  0.00000000  7.716049e-04