&bands
prefix = 'graphene'
outdir = './'
filband = 'graphene.bands.dat'
lsym = .true.
/
