&projwfc
prefix = 'graphene'
outdir = './'
lsym = .false.
filproj = 'fatband'
/
